SCIP Status        : solving was interrupted [time limit reached]
Total Time         :    3600.03
  solving          :    3600.03
  presolving       :       0.00 (included in solving)
  reading          :       0.00
  copying          :       0.17 (81 #copies) (minimal 0.00, maximal 0.00, average 0.00)
Original Problem   :
  Problem name     : ex7_2_3
  Variables        : 8 (0 binary, 0 integer, 0 implicit integer, 8 continuous)
  Constraints      : 6 initial, 6 maximal
  Objective        : minimize, 3 non-zeros (abs.min = 1, abs.max = 1)
Presolved Problem  :
  Problem name     : t_ex7_2_3
  Variables        : 25 (0 binary, 0 integer, 0 implicit integer, 25 continuous)
  Constraints      : 6 initial, 6 maximal
  Objective        : minimize, 3 non-zeros (abs.min = 1, abs.max = 1)
  Nonzeros         : 17 constraint, 0 clique table
Presolvers         :   ExecTime  SetupTime  Calls  FixedVars   AggrVars   ChgTypes  ChgBounds   AddHoles    DelCons    AddCons   ChgSides   ChgCoefs
  boundshift       :       0.00       0.00      0          0          0          0          0          0          0          0          0          0
  convertinttobin  :       0.00       0.00      0          0          0          0          0          0          0          0          0          0
  domcol           :       0.00       0.00      1          0          0          0          0          0          0          0          0          0
  dualagg          :       0.00       0.00      0          0          0          0          0          0          0          0          0          0
  dualcomp         :       0.00       0.00      1          0          0          0          0          0          0          0          0          0
  dualinfer        :       0.00       0.00      0          0          0          0          0          0          0          0          0          0
  dualsparsify     :       0.00       0.00      1          0          0          0          0          0          0          0          0          0
  gateextraction   :       0.00       0.00      0          0          0          0          0          0          0          0          0          0
  implics          :       0.00       0.00      1          0          0          0          0          0          0          0          0          0
  inttobinary      :       0.00       0.00      0          0          0          0          0          0          0          0          0          0
  qpkktref         :       0.00       0.00      0          0          0          0          0          0          0          0          0          0
  redvub           :       0.00       0.00      0          0          0          0          0          0          0          0          0          0
  sparsify         :       0.00       0.00      1          0          0          0          0          0          0          0          0          0
  stuffing         :       0.00       0.00      0          0          0          0          0          0          0          0          0          0
  trivial          :       0.00       0.00      2          0          0          0          0          0          0          0          0          0
  tworowbnd        :       0.00       0.00      0          0          0          0          0          0          0          0          0          0
  dualfix          :       0.00       0.00      2          0          0          0          0          0          0          0          0          0
  genvbounds       :       0.00       0.00      0          0          0          0          0          0          0          0          0          0
  probing          :       0.00       0.00      0          0          0          0          0          0          0          0          0          0
  pseudoobj        :       0.00       0.00      0          0          0          0          0          0          0          0          0          0
  symmetry         :       0.00       0.00      1          0          0          0          0          0          0          0          0          0
  vbounds          :       0.00       0.00      0          0          0          0          0          0          0          0          0          0
  linear           :       0.00       0.00      3          0          0          0          5          0          0          0          0          0
  nonlinear        :       0.00       0.00      4          0          0          0          0          0          0          0          0          0
  benders          :       0.00       0.00      0          0          0          0          0          0          0          0          0          0
  components       :       0.00       0.00      1          0          0          0          0          0          0          0          0          0
  root node        :          -          -      -          0          -          -         11          -          -          -          -          -
Constraints        :     Number  MaxNumber  #Separate #Propagate    #EnfoLP    #EnfoRelax  #EnfoPS    #Check   #ResProp    Cutoffs    DomReds       Cuts    Applied      Conss   Children
  benderslp        :          0          0          0          0    5973885          0       4217      35677          0          0          0          0          0          0          0
  integral         :          0          0          0          0    5973885          0          0      35677          0          0          0          0          0          0          0
  linear           :          3+         4          3    9392793       4923          0       1279      35673          0          7    1603560          0          0          0          0
  nonlinear        :          3          3   10035953    9392786    5973885          0       4217      35671          0    1783444   72861402   18761135   15966460          0    8376994
  benders          :          0          0          0          0       4923          0       4217         18          0          0          0          0          0          0          0
  countsols        :          0          0          0          0       4923          0       4217         18          0          0          0          0          0          0          0
  components       :          0          0          0          0          0          0          0          0          0          0          0          0          0          0          0
Constraint Timings :  TotalTime  SetupTime   Separate  Propagate     EnfoLP     EnfoPS     EnfoRelax   Check    ResProp    SB-Prop
  benderslp        :       0.70       0.00       0.00       0.00       0.70       0.00       0.00       0.00       0.00       0.00
  integral         :       0.73       0.00       0.00       0.00       0.73       0.00       0.00       0.00       0.00       0.00
  linear           :       5.54       0.00       0.00       5.53       0.00       0.00       0.00       0.00       0.00       0.00
  nonlinear        :    1682.94       0.00    1106.60     149.04     427.23       0.02       0.00       0.06       0.00       0.00
  benders          :       0.00       0.00       0.00       0.00       0.00       0.00       0.00       0.00       0.00       0.00
  countsols        :       0.00       0.00       0.00       0.00       0.00       0.00       0.00       0.00       0.00       0.00
  components       :       0.42       0.00       0.00       0.42       0.00       0.00       0.00       0.00       0.00       0.00
Propagators        : #Propagate   #ResProp    Cutoffs    DomReds
  dualfix          :          3          0          0          0
  genvbounds       :    3082937          0         27    1702854
  nlobbt           :          0          0          0          0
  obbt             :          2          0          0          0
  probing          :          0          0          0          0
  pseudoobj        :   15366684          0          0     469224
  redcost          :          0          0          0          0
  rootredcost      :          6          0          0          0
  symmetry         :          0          0          0          0
  vbounds          :          0          0          0          0
Propagator Timings :  TotalTime  SetupTime   Presolve  Propagate    ResProp    SB-Prop
  dualfix          :       0.00       0.00       0.00       0.00       0.00       0.00
  genvbounds       :       7.19       0.00       0.00       7.19       0.00       0.00
  nlobbt           :       0.00       0.00       0.00       0.00       0.00       0.00
  obbt             :       0.00       0.00       0.00       0.00       0.00       0.00
  probing          :       0.00       0.00       0.00       0.00       0.00       0.00
  pseudoobj        :       5.41       0.00       0.00       5.41       0.00       0.00
  redcost          :       3.16       0.00       0.00       3.16       0.00       0.00
  rootredcost      :       1.53       0.00       0.00       1.53       0.00       0.00
  symmetry         :       0.61       0.00       0.00       0.61       0.00       0.00
  vbounds          :       1.48       0.00       0.00       1.48       0.00       0.00
Conflict Analysis  :       Time      Calls    Success    DomReds  Conflicts   Literals    Reconvs ReconvLits   Dualrays   Nonzeros   LP Iters   (pool size: [--,--])
  propagation      :       0.00          0          0          -          0        0.0          0        0.0          -          -          -
  infeasible LP    :       0.67     138725        176          -          0        0.0          0        0.0         88        1.0          0
  bound exceed. LP :       0.25      66045          0          -          0        0.0          0        0.0          0        0.0          0
  strong branching :       0.00          0          0          -          0        0.0          0        0.0          -          -          0
  pseudo solution  :       0.00          0          0          -          0        0.0          0        0.0          -          -          -
  applied globally :       0.00          -          -          0          0        0.0          -          -          0          -          -
  applied locally  :          -          -          -         88          0        0.0          -          -         88          -          -
Separators         :   ExecTime  SetupTime      Calls  RootCalls    Cutoffs    DomReds  FoundCuts ViaPoolAdd  DirectAdd    Applied ViaPoolApp  DirectApp      Conss
  cut pool         :       0.00          -          0          0          -          -          0          0          -          -          -          -          -    (maximal pool size:          0)
  aggregation      :       0.03       0.00          0          0          0          0          0          0          0          0          0          0          0
  > cmir           :          -          -          -          -          -          -          -          0          0          0          0          0          -
  > flowcover      :          -          -          -          -          -          -          -          0          0          0          0          0          -
  > knapsackcover  :          -          -          -          -          -          -          -          0          0          0          0          0          -
  cgmip            :       0.00       0.00          0          0          0          0          0          0          0          0          0          0          0
  clique           :       0.00       0.00          0          0          0          0          0          0          0          0          0          0          0
  closecuts        :       0.00       0.00          0          0          0          0          0          0          0          0          0          0          0
  convexproj       :       0.00       0.00          0          0          0          0          0          0          0          0          0          0          0
  disjunctive      :       0.00       0.00          0          0          0          0          0          0          0          0          0          0          0
  eccuts           :       0.00       0.00          0          0          0          0          0          0          0          0          0          0          0
  gauge            :       0.00       0.00          0          0          0          0          0          0          0          0          0          0          0
  gomory           :       0.08       0.00          0          0          0          0          0          0          0          0          0          0          0
  > gomorymi       :          -          -          -          -          -          -          -          0          0          0          0          0          -
  > strongcg       :          -          -          -          -          -          -          -          0          0          0          0          0          -
  impliedbounds    :       0.02       0.00          0          0          0          0          0          0          0          0          0          0          0
  interminor       :       0.00       0.00          0          0          0          0          0          0          0          0          0          0          0
  intobj           :       0.00       0.00          0          0          0          0          0          0          0          0          0          0          0
  mcf              :       0.00       0.00          0          0          0          0          0          0          0          0          0          0          0
  minor            :       0.04       0.00          0          0          0          0          0          0          0          0          0          0          0
  mixing           :       0.03       0.00     123795          3          0          0          0          0          0          0          0          0          0
  oddcycle         :       0.00       0.00          0          0          0          0          0          0          0          0          0          0          0
  rapidlearning    :       0.01       0.00          0          0          0          0          0          0          0          0          0          0          0
  rlt              :       0.00       0.00          1          1          0          0          0          0          0          0          0          0          0
  zerohalf         :       0.03       0.00          0          0          0          0          0          0          0          0          0          0          0
Cutselectors       :   ExecTime  SetupTime      Calls  RootCalls   Selected     Forced   Filtered  RootSelec   RootForc   RootFilt 
  hybrid           :       6.71       0.00    6034638          1   13195990      10833    2684479          2          0          0
Pricers            :   ExecTime  SetupTime      Calls       Vars
  problem variables:       0.00          -          0          0
Branching Rules    :   ExecTime  SetupTime   BranchLP  BranchExt   BranchPS    Cutoffs    DomReds       Cuts      Conss   Children
  allfullstrong    :       0.00       0.00          0          0          0          0          0          0          0          0
  cloud            :       0.00       0.00          0          0          0          0          0          0          0          0
  distribution     :       0.00       0.00          0          0          0          0          0          0          0          0
  fullstrong       :       0.00       0.00          0          0          0          0          0          0          0          0
  inference        :       0.00       0.00          0          0          0          0          0          0          0          0
  leastinf         :       0.00       0.00          0          0          0          0          0          0          0          0
  lookahead        :       0.00       0.00          0          0          0          0          0          0          0          0
  mostinf          :       0.00       0.00          0          0          0          0          0          0          0          0
  multaggr         :       0.00       0.00          0          0          0          0          0          0          0          0
  nodereopt        :       0.00       0.00          0          0          0          0          0          0          0          0
  pscost           :       0.05       0.00          0       9140          0          0          0          0          0      18280
  random           :       0.00       0.00          0          0          0          0          0          0          0          0
  relpscost        :       0.00       0.00          0          0          0          0          0          0          0          0
  vanillafullstrong:       0.00       0.00          0          0          0          0          0          0          0          0
Primal Heuristics  :   ExecTime  SetupTime      Calls      Found       Best
  LP solutions     :       0.00          -          -          0          0
  relax solutions  :       0.00          -          -          0          0
  pseudo solutions :       0.00          -          -          0          0
  strong branching :       0.00          -          -          0          0
  actconsdiving    :       0.00       0.00          0          0          0
  adaptivediving   :       0.18       0.00       4697          0          0
  alns             :       0.40       0.00         81          0          0
  bound            :       0.00       0.00          0          0          0
  clique           :       0.00       0.00          0          0          0
  coefdiving       :       0.00       0.00          0          0          0
  completesol      :       0.00       0.00          0          0          0
  conflictdiving   :       0.14       0.00          0          0          0
  crossover        :       0.46       0.00          0          0          0
  dins             :       0.00       0.00          0          0          0
  distributiondivin:       0.05       0.00          0          0          0
  dps              :       0.00       0.00          0          0          0
  dualval          :       0.00       0.00          0          0          0
  farkasdiving     :       0.05       0.00          0          0          0
  feaspump         :       0.05       0.00          0          0          0
  fixandinfer      :       0.00       0.00          0          0          0
  fracdiving       :       0.13       0.00       6549          0          0
  gins             :       0.11       0.00          0          0          0
  guideddiving     :       0.07       0.00          0          0          0
  indicator        :       1.09       0.00          0          0          0
  indicatordiving  :       0.00       0.00          0          0          0
  intdiving        :       0.00       0.00          0          0          0
  intshifting      :       0.04       0.00          0          0          0
  linesearchdiving :       0.13       0.00       6580          0          0
  localbranching   :       0.00       0.00          0          0          0
  locks            :       0.00       0.00          0          0          0
  lpface           :       0.30       0.00          0          0          0
  mpec             :       0.01       0.00          0          0          0
  multistart       :       0.03       0.00          1          0          0
  mutation         :       0.00       0.00          0          0          0
  nlpdiving        :       0.04       0.00          0          0          0
  objpscostdiving  :       0.04       0.00          0          0          0
  octane           :       0.00       0.00          0          0          0
  ofins            :       0.42       0.00          0          0          0
  oneopt           :       0.75       0.00          0          0          0
  padm             :       0.00       0.00          0          0          0
  proximity        :       0.00       0.00          0          0          0
  pscostdiving     :       0.04       0.00          0          0          0
  randrounding     :       0.04       0.00          0          0          0
  rens             :       0.86       0.00          0          0          0
  reoptsols        :       0.00       0.00          0          0          0
  repair           :       0.00       0.00          0          0          0
  rins             :       0.11       0.00          0          0          0
  rootsoldiving    :       0.05       0.00          0          0          0
  rounding         :       2.17       0.00          0          0          0
  shiftandpropagate:       0.00       0.00          0          0          0
  shifting         :       0.18       0.00          0          0          0
  simplerounding   :       1.32       0.00          0          0          0
  subnlp           :      12.66       0.00       1366         17          6
  trivial          :       0.00       0.00          2          0          0
  trivialnegation  :       0.00       0.00          0          0          0
  trustregion      :       0.00       0.00          0          0          0
  trysol           :       1.07       0.00          0          0          0
  twoopt           :       0.00       0.00          0          0          0
  undercover       :       0.00       0.00          1          0          0
  vbounds          :       0.00       0.00          0          0          0
  veclendiving     :       0.04       0.00          0          0          0
  zeroobj          :       0.00       0.00          0          0          0
  zirounding       :       0.68       0.00          0          0          0
  other solutions  :          -          -          -          0          -
Expressions        :   #IntEval  IntEvalTi   #RevProp  RevPropTi    DomReds    Cutoffs  #Estimate  EstimTime  Branching  #Simplify SimplifyTi Simplified
  pow              :   53573988       6.74    8445898       1.92   11030883          0   27040081       4.42    3735619         28       0.00          2
  prod             :   41286506       7.27   22946450      12.12   11098001     815028   24206546    1252.04    8573792         29       0.00         15
  sum              :    8078284       1.98    7198229       3.07    3138256          0          7       0.00          0         24       0.00          6
  var              :   40328250       1.90          0       0.00          0          0          0       0.00          0         42       0.00          0
Nlhdlrs            :    Detects  DetectAll DetectTime   #IntEval  IntEvalTi   #RevProp  RevPropTi    DomReds    Cutoffs   #Enforce   EnfoTime       Cuts  Branching
  soc              :          0          0       0.00          0       0.00          0       0.00          0          0          0       0.00          0          0
  convex           :          1          1       0.00          0       0.00          0       0.00          0          0   18808229      24.17          1          0
  concave          :          1          1       0.00          0       0.00          0       0.00          0          0    5598219      16.29     386616          0
  quotient         :          4          4       0.00          0       0.00          0       0.00          0          0   32037206      20.65    2456581          0
  quadratic        :          2         10       0.00   17051659      11.64   16014524      26.14   13322287       1006          0       0.00          0          0
  default          :         25        105       0.00  102938725      21.19   38590601      37.24   25267140     815028   51246628    1309.51   15917941          0
  bilinear         :          2          2       0.00    8078261       0.40     916391       0.05          0          0    5497521       0.43          0          0
  perspective      :          0          0       0.00          0       0.00          0       0.00          0          0          0       0.00          0          0
LP                 :       Time      Calls Iterations  Iter/call   Iter/sec  Time-0-It Calls-0-It    ItLimit
  primal LP        :     154.51    1635413          0       0.00       0.00     154.39    1635413
  dual LP          :    1117.90   12150745   27119777       2.96   24259.50     191.78    2988755
  lex dual LP      :       0.00          0          0       0.00          -
  barrier LP       :       0.00          0          0       0.00          -       0.00          0
  resolve instable :       0.00          0          0       0.00          -
  diving/probing LP:       0.00          7         40       5.71          -
  strong branching :       0.00          0          0       0.00          -          -          -          0
    (at root node) :          -          0          0       0.00          -
  conflict analysis:       0.00          0          0       0.00          -
NLP relaxation     :
  solve time       :       0.00 (0 calls)
  convexity        :  nonconvex (3 linear rows, 0 convex ineq., 3 nonconvex ineq., 0 nonlinear eq. or two-sided ineq.)
NLP Solvers        :  #Problems  ProblemTi    #Solves  SolveTime      #Iter  Time/Iter      #Okay #TimeLimit #IterLimit #LObjLimit #Interrupt  #NumError #EvalError  #OutOfMem #LicenseEr #OtherTerm   #GlobOpt    #LocOpt  #Feasible #LocInfeas #GlobInfea #Unbounded   #Unknown
  ipopt            :          2       0.00       1369      11.47      24425       0.00       1323          0         46          0          0          0          0          0          0          0          0       1323         20          0          0          0         26
B&B Tree           :
  number of runs   :          1
  nodes            :    6186484 (4197637 internal, 1988847 leaves)
  feasible leaves  :          0
  infeas. leaves   :    1922203
  objective leaves :      66643
  nodes (total)    :    6186484 (4197637 internal, 1988847 leaves)
  nodes left       :    2208792
  max depth        :         74
  max depth (total):         74
  backtracks       :     683395 (11.0%)
  early backtracks :          0 (0.0%)
  nodes exc. ref.  :          0 (0.0%)
  delayed cutoffs  :          0
  repropagations   :          0 (0 domain reductions, 0 cutoffs)
  avg switch length:       6.46
  switching time   :     238.98
Root Node          :
  First LP value   : +2.10000000000000e+03
  First LP Iters   :          4 (8791.21 Iter/sec)
  First LP Time    :       0.00
  Final Dual Bound : +2.10000000000000e+03
  Final Root Iters :          8
  Root LP Estimate : +2.10000019858507e+03
Solution           :
  Solutions found  :         17 (6 improvements)
  First Solution   : +7.04924770823108e+03   (in run 1, after 1 nodes, 0.02 seconds, depth 0, found by <trivial>)
  Gap First Sol.   :     235.68 %
  Gap Last Sol.    :     235.68 %
  Primal Bound     : +7.04924766945448e+03   (in run 1, after 509999 nodes, 240.34 seconds, depth 30, found by <linesearchdiving>)
  Dual Bound       : +2.10000000000000e+03
  Gap              :     235.68 %
Integrals          :      Total       Avg%
  primal-dual      :  252757.48      70.21
  primal-ref       :          -          - (not evaluated)
  dual-ref         :          -          - (not evaluated)
